<instance format="XCSP3" type="CSP">
  <variables>
    <var id="x0"> 5 7 12 14 </var>
    <var id="x1"> 1 5 7 13 </var>
    <var id="x2"> 0 12 </var>
    <var id="x3"> 0 7 12 14 </var>
    <var id="x4"> 1 5 10 13 </var>
    <var id="x5"> 0 1 14 </var>
    <var id="x6"> 1 5 10 12 13 </var>
    <var id="x7"> 1 10 13 </var>
    <var id="x8"> 0 13 14 17 </var>
    <var id="x9"> 0 6 13 15 </var>
    <var id="x10"> 4 6 11 14 17 </var>
    <var id="x11"> 0 6 14 15 </var>
    <var id="x12"> 0 4 13 15 </var>
    <var id="x13"> 4 6 13 17 </var>
    <var id="x14"> 0 6 11 15 17 </var>
    <var id="x15"> 4 6 13 </var>
    <var id="x16"> 0 1 12 13 </var>
    <var id="x17"> 0 1 6 12 13 15 </var>
    <var id="x18"> 0 6 9 12 15 </var>
    <var id="x19"> 6 9 13 </var>
    <var id="x20"> 1 6 9 10 12 13 </var>
    <var id="x21"> 0 6 12 15 </var>
    <var id="x22"> 1 6 10 13 </var>
    <var id="x23"> 0 6 15 </var>
    <var id="x24"> 5 6 14 17 </var>
    <var id="x25"> 1 5 6 17 </var>
    <var id="x26"> 1 14 16 17 </var>
    <var id="x27"> 1 5 6 </var>
    <var id="x28"> 1 4..6 17 </var>
    <var id="x29"> 6 8 16 17 </var>
    <var id="x30"> 1 6 8 14 16 17 </var>
    <var id="x31"> 1 4 6 8 16 </var>
    <var id="x32"> 6 15 </var>
    <var id="x33"> 6 9 13 15 </var>
    <var id="x34"> 0 3 6 13 15 </var>
    <var id="x35"> 0 4 9 13 15 </var>
    <var id="x36"> 3 4 6 10 13 </var>
    <var id="x37"> 3 6 9 13 </var>
    <var id="x38"> 4 6 10 13 </var>
    <var id="x39"> 3 6 10 13 </var>
    <var id="x40"> 1 12 14 16 17 </var>
    <var id="x41"> 6 8 12 16 </var>
    <var id="x42"> 1 6 12 </var>
    <var id="x43"> 6 8 16 17 </var>
    <var as="x30" id="x44"/>
    <var id="x45"> 1 10 16 17 </var>
    <var id="x46"> 6 10 12 14 </var>
    <var id="x47"> 1 8 10 12 17 </var>
    <var id="x48"> 4 6 12 15 </var>
    <var id="x49"> 4 6 14 17 </var>
    <var id="x50"> 6 7 13 17 </var>
    <var id="x51"> 6 12 15 17 </var>
    <var id="x52"> 7 15 17 </var>
    <var id="x53"> 4 6 7 15 17 </var>
    <var id="x54"> 6 7 12..14 </var>
    <var id="x55"> 4 12 17 </var>
    <var id="x56"> 4 9 17 </var>
    <var id="x57"> 0 7 9 </var>
    <var id="x58"> 0 4 7 9 16 </var>
    <var id="x59"> 7..9 16 17 </var>
    <var id="x60"> 4 8 16 </var>
    <var id="x61"> 0 4 7 17 </var>
    <var id="x62"> 0 4 8 17 </var>
    <var id="x63"> 5 6 11 12 </var>
    <var id="x64"> 0 6 8 12 </var>
    <var id="x65"> 0 1 6 8 </var>
    <var id="x66"> 1 5 6 12 13 </var>
    <var id="x67"> 0 6 8 11 12 </var>
    <var id="x68"> 0 1 </var>
    <var id="x69"> 0 5 6 </var>
    <var id="x70"> 5 6 12 13 </var>
    <var id="x71"> 7 9 15 </var>
    <var id="x72"> 0 7 9 15 16 </var>
    <var id="x73"> 0 9 16 </var>
    <var id="x74"> 9 12 </var>
    <var id="x75"> 0 7 15 16 </var>
    <var id="x76"> 0 3 7 15 </var>
    <var id="x77"> 3 7 12 </var>
    <var id="x78"> 6 7 11 15 17 </var>
    <var id="x79"> 0 1 3 6 15 </var>
    <var id="x80"> 0 6 7 15 </var>
    <var id="x81"> 1 3 6 17 </var>
    <var id="x82"> 3 6 7 17 </var>
    <var id="x83"> 1 6 </var>
    <var id="x84"> 3 6 7 </var>
    <var id="x85"> 0 1 11 17 </var>
    <var id="x86"> 1 5 7 13 15 </var>
    <var id="x87"> 1 7 12 13 </var>
    <var id="x88"> 3 8 12 15 </var>
    <var id="x89"> 1 </var>
    <var id="x90"> 7 12 15 </var>
    <var id="x91"> 3 5 7 15 </var>
    <var id="x92"> 3 5 7 12 13 </var>
    <var id="x93"> 1 8 12 </var>
    <var id="x94"> 6 7 15 17 </var>
    <var id="x95"> 1 6 7 9 15 17 </var>
    <var id="x96"> 1 7 17 </var>
    <var id="x97"> 6 15 </var>
    <var id="x98"> 1 6 10 17 </var>
    <var id="x99"> 1 6 9 17 </var>
    <var id="x100"> 1 2 6 9 10 </var>
    <var id="x101"> 1 7 10 15 17 </var>
    <var id="x102"> 6 12 14 17 </var>
    <var as="x40" id="x103"/>
    <var id="x104"> 4 6 8 12 16 </var>
    <var id="x105"> 4 16 </var>
    <var as="x30" id="x106"/>
    <var id="x107"> 1 6 12 </var>
    <var id="x108"> 6 8 12 16 17 </var>
    <var id="x109"> 1 4 8 12 17 </var>
    <var id="x110"> 0 7 13 16 17 </var>
    <var id="x111"> 0 3 6 16 </var>
    <var id="x112"> 0 3 6 13 </var>
    <var id="x113"> 6 11 17 </var>
    <var id="x114"> 0 6 11 16 17 </var>
    <var id="x115"> 0 7 16 17 </var>
    <var id="x116"> 0 3 6 7 17 </var>
    <var id="x117"> 0 11 17 </var>
    <var id="x118"> 5 6 13 17 </var>
    <var id="x119"> 2 4 6 17 </var>
    <var id="x120"> 0 2 6 12 </var>
    <var id="x121"> 0 4 13 </var>
    <var id="x122"> 0 6 17 </var>
    <var id="x123"> 0 6 12 17 </var>
    <var id="x124"> 0 4..6 17 </var>
    <var id="x125"> 5 6 12 13 </var>
    <var id="x126"> 5..7 17 </var>
    <var id="x127"> 5..7 9 17 </var>
    <var id="x128"> 3 5 6 </var>
    <var id="x129"> 6 9 17 </var>
    <var id="x130"> 7 9 16 </var>
    <var id="x131"> 3 5 6 10 17 </var>
    <var id="x132"> 6 16 17 </var>
    <var id="x133"> 6 10 16 </var>
    <var id="x134"> 1 2 6 9 </var>
    <var id="x135"> 2 6 9 15 </var>
    <var id="x136"> 1 5 6 </var>
    <var id="x137"> 6 9 16 </var>
    <var id="x138"> 1 2 5 6 9 </var>
    <var id="x139"> 1 15 16 </var>
    <var id="x140"> 1 </var>
  </variables>
  <constraints>
    <group>
      <allDifferent> %... </allDifferent>
      <args> x0 x1 x2 x3 x4 x5 x6 x7 </args>
      <args> x8 x9 x10 x11 x12 x13 x14 x15 </args>
      <args> x16 x17 x18 x19 x20 x21 x22 x23 </args>
      <args> x24 x25 x26 x27 x28 x29 x30 x31 </args>
      <args> x32 x33 x34 x35 x36 x37 x38 x39 </args>
      <args> x40 x41 x42 x43 x44 x45 x46 x47 </args>
      <args> x48 x49 x50 x51 x52 x53 x54 x55 </args>
      <args> x56 x57 x58 x59 x60 x61 x62 </args>
      <args> x63 x64 x65 x66 x67 x68 x69 x70 </args>
      <args> x71 x72 x73 x74 x75 x76 x77 </args>
      <args> x78 x79 x80 x81 x82 x83 x84 x85 </args>
      <args> x86 x87 x88 x89 x90 x91 x92 x93 </args>
      <args> x94 x95 x96 x97 x98 x99 x100 x101 </args>
      <args> x102 x103 x104 x105 x106 x107 x108 x109 </args>
      <args> x110 x111 x112 x113 x114 x115 x116 x117 </args>
      <args> x118 x119 x120 x121 x122 x123 x124 x125 </args>
      <args> x126 x127 x128 x129 x130 x131 x132 x133 </args>
      <args> x134 x135 x136 x137 x138 x139 x140 </args>
      <args> x0 x24 x32 x63 x78 x94 x102 x126 </args>
      <args> x1 x25 x33 x71 x86 x95 x118 x127 </args>
      <args> x8 x16 x26 x40 x87 x96 x103 x110 </args>
      <args> x2 x41 x48 x64 x88 x97 x104 x111 </args>
      <args> x9 x17 x27 x34 x42 x79 x112 x128 </args>
      <args> x10 x49 x56 x89 x113 x119 x129 x134 </args>
      <args> x3 x11 x18 x57 x80 x90 x120 x135 </args>
      <args> x12 x35 x58 x72 x105 x121 x130 </args>
      <args> x4 x13 x28 x36 x81 x98 x131 x136 </args>
      <args> x19 x29 x37 x43 x50 x59 x82 x137 </args>
      <args> x5 x30 x44 x65 x73 x99 x106 x122 </args>
      <args> x6 x20 x66 x74 x83 x100 x107 x138 </args>
      <args> x14 x21 x51 x67 x108 x114 x123 x132 </args>
      <args> x45 x52 x68 x75 x101 x115 x139 </args>
      <args> x7 x15 x22 x31 x38 x60 x133 </args>
      <args> x23 x53 x61 x69 x76 x91 x116 x124 </args>
      <args> x39 x46 x54 x70 x77 x84 x92 x125 </args>
      <args> x47 x55 x62 x85 x93 x109 x117 x140 </args>
    </group>
  </constraints>
</instance>

